param bigM:= 100;

param horizon:= 10;

param nDims:= 2;

param minmazebounds_d:= 1 0 2 0;

param maxmazebounds_d:= 1 10 2 10;

param minactionbounds_d:= 1 -1 2 -1;

param maxactionbounds_d:= 1 1 2 1;

param minmudbounds_d:= 1 4 2 4;

param maxmudbounds_d:= 1 6 2 6;

param initial_d:= 1 0 2 0;

param goal_d:= 1 8 2 8;

param discount:= 0.5;

param nCond:= 2;